Maximize
F - ff - gg

Subject to
F - f1 - f2 - f3 - f4 = 0
f1 - 20X8 - 20X20 - 20X34 - 30X38 - 30X51 - 20X91 - 30X137 - 20X142 - 10X162 = 0
f2 - 10.0Y20 - 10.0Y34 - 15.0Y51 - 10.0Y91 = 0
f3 - 6.0Z20 - 6.0Z91 = 0
f4 - 4.0V8 - 6.0V38 - 4.0V91 - 6.0V137 - 4.0V142 - 2.0V162 = 0

ff - 0.007721s8 - 0.007721s20 - 0.007721s34 - 0.007721s38 - 0.007721s51 - 0.007721s91 - 0.007721s137 - 0.007721s142 - 0.007721s162 
- 0.007721t20 - 0.007721t34 - 0.007721t51 - 0.007721t91 
- 0.007721u20 - 0.007721u91 
- 0.007721r8 - 0.007721r38 - 0.007721r91 - 0.007721r137 - 0.007721r142 - 0.007721r162 
= 0
gg - 3.538753Y20 - 2.106504Y34 - 1.176459Y51 - 3.567700Y91 
- 2.688753Z20 - 2.717700Z91 
- 3.856082V8 - 3.966037V38 - 2.339700V91 - 3.923816V137 - 3.553416V142 - 3.626355V162 = 0

n1 - X8 - X20 - X34 - X38 - X51 - X91 - X137 - X142 - X162 = 0
n2 - Y20 - Y34 - Y51 - Y91 = 0
n3 - Z20 - Z91 = 0
n4 - V8 - V38 - V91 - V137 - V142 - V162 = 0

X20 + Y20 <= 1
X34 + Y34 <= 1
X51 + Y51 <= 1
X91 + Y91 <= 1

X20 + Z20 <= 1
X91 + Z91 <= 1

X8 + V8 <= 1
X38 + V38 <= 1
X91 + V91 <= 1
X137 + V137 <= 1
X142 + V142 <= 1
X162 + V162 <= 1


x73x20x1 + x73x34x1 + x73x38x1 + x73x162x1 
+ y73y20y1 + y73y34y1 
<= 1

x189x20x1 + x189x34x1 + x189x38x1 + x189x162x1 
+ y189y20y1 + y189y34y1 
<= 2

x167x20x1 + x167x34x1 + x167x38x1 + x167x162x1 
+ y167y20y1 + y167y34y1 
<= 2

x87x20x1 + x87x34x1 + x87x38x1 + x87x162x1 
+ y87y20y1 + y87y34y1 
<= 1


x68x8x2 + x68x51x2 + x68x91x2 + x68x142x2 
+ y68y51y2 + y68y91y2 
<= 1

x175x8x2 + x175x51x2 + x175x91x2 + x175x142x2 
+ y175y51y2 + y175y91y2 
<= 1

x158x8x2 + x158x51x2 + x158x91x2 + x158x142x2 
+ y158y51y2 + y158y91y2 
<= 2




x98x8x2 + x98x51x2 + x98x91x2 + x98x142x2 
+ y98y51y2 + y98y91y2 
<= 2


x175x34x3 + x175x51x3 + x175x137x3 + x175x162x3 
+ y175y34y3 + y175y51y3 
<= 1



x85x34x3 + x85x51x3 + x85x137x3 + x85x162x3 
+ y85y34y3 + y85y51y3 
<= 2
x87x34x3 + x87x51x3 + x87x137x3 + x87x162x3 
+ y87y34y3 + y87y51y3 
<= 1
x41x34x3 + x41x51x3 + x41x137x3 + x41x162x3 
+ y41y34y3 + y41y51y3 
<= 2


x73x20x1 + x73x34x1 + x73x38x1 + x73x162x1 
+ z73z20z1 
<= 1

x189x20x1 + x189x34x1 + x189x38x1 + x189x162x1 
+ z189z20z1 
<= 2

x167x20x1 + x167x34x1 + x167x38x1 + x167x162x1 
+ z167z20z1 
<= 2

x87x20x1 + x87x34x1 + x87x38x1 + x87x162x1 
+ z87z20z1 
<= 1


x68x8x2 + x68x51x2 + x68x91x2 + x68x142x2 
+ z68z91z2 
<= 1

x175x8x2 + x175x51x2 + x175x91x2 + x175x142x2 
+ z175z91z2 
<= 1

x158x8x2 + x158x51x2 + x158x91x2 + x158x142x2 
+ z158z91z2 
<= 2




x98x8x2 + x98x51x2 + x98x91x2 + x98x142x2 
+ z98z91z2 
<= 2


x175x34x3 + x175x51x3 + x175x137x3 + x175x162x3 

<= 1



x85x34x3 + x85x51x3 + x85x137x3 + x85x162x3 

<= 2
x87x34x3 + x87x51x3 + x87x137x3 + x87x162x3 

<= 1
x41x34x3 + x41x51x3 + x41x137x3 + x41x162x3 

<= 2


x73x20x1 + x73x34x1 + x73x38x1 + x73x162x1 
+ v73v38v1 + v73v162v1 
<= 1

x189x20x1 + x189x34x1 + x189x38x1 + x189x162x1 
+ v189v38v1 + v189v162v1 
<= 2

x167x20x1 + x167x34x1 + x167x38x1 + x167x162x1 
+ v167v38v1 + v167v162v1 
<= 2

x87x20x1 + x87x34x1 + x87x38x1 + x87x162x1 
+ v87v38v1 + v87v162v1 
<= 1


x68x8x2 + x68x51x2 + x68x91x2 + x68x142x2 
+ v68v8v2 + v68v91v2 + v68v142v2 
<= 1

x175x8x2 + x175x51x2 + x175x91x2 + x175x142x2 
+ v175v8v2 + v175v91v2 + v175v142v2 
<= 1

x158x8x2 + x158x51x2 + x158x91x2 + x158x142x2 
+ v158v8v2 + v158v91v2 + v158v142v2 
<= 2




x98x8x2 + x98x51x2 + x98x91x2 + x98x142x2 
+ v98v8v2 + v98v91v2 + v98v142v2 
<= 2


x175x34x3 + x175x51x3 + x175x137x3 + x175x162x3 
+ v175v137v3 + v175v162v3 
<= 1



x85x34x3 + x85x51x3 + x85x137x3 + x85x162x3 
+ v85v137v3 + v85v162v3 
<= 2
x87x34x3 + x87x51x3 + x87x137x3 + x87x162x3 
+ v87v137v3 + v87v162v3 
<= 1
x41x34x3 + x41x51x3 + x41x137x3 + x41x162x3 
+ v41v137v3 + v41v162v3 
<= 2

x68x8x2 + x175x8x2 + x158x8x2 + x98x8x2 
- x8x51x2 - x8x142x2 
- y8y51y2 - y8y91y2 - y8y0y2
= 0

x73x20x1 + x189x20x1 + x167x20x1 + x87x20x1 
+ y73y20y1 + y189y20y1 + y167y20y1 + y87y20y1 + y38y20y1 + y162y20y1 
= 0

x73x34x1 + x189x34x1 + x167x34x1 + x87x34x1 
+ y73y34y1 + y189y34y1 + y167y34y1 + y87y34y1 + y38y34y1 + y162y34y1 
= 0
x175x34x3 + x85x34x3 + x87x34x3 + x41x34x3 
+ y175y34y3 + y85y34y3 + y87y34y3 + y41y34y3 + y137y34y3 + y162y34y3 
- x34x51x3 
- y34y51y3 - y34y0y3
= 0

x73x38x1 + x189x38x1 + x167x38x1 + x87x38x1 
- x38x162x1 
- y38y20y1 - y38y34y1 - y38y0y1
= 0

x68x51x2 + x175x51x2 + x158x51x2 + x98x51x2 + x8x51x2 + x142x51x2 
+ y68y51y2 + y175y51y2 + y158y51y2 + y98y51y2 + y8y51y2 + y91y51y2 + y142y51y2 
= 0
x175x51x3 + x85x51x3 + x87x51x3 + x41x51x3 + x34x51x3 + x137x51x3 + x162x51x3 
+ y175y51y3 + y85y51y3 + y87y51y3 + y41y51y3 + y34y51y3 + y137y51y3 + y162y51y3 
= 0

x68x91x2 + x175x91x2 + x158x91x2 + x98x91x2 
+ y68y91y2 + y175y91y2 + y158y91y2 + y98y91y2 + y8y91y2 + y142y91y2 
- y91y51y2 - y91y0y2
= 0

x175x137x3 + x85x137x3 + x87x137x3 + x41x137x3 
- x137x51x3 - x137x162x3 
- y137y34y3 - y137y51y3 - y137y0y3
= 0

x68x142x2 + x175x142x2 + x158x142x2 + x98x142x2 + x8x142x2 
- x142x51x2 
- y142y51y2 - y142y91y2 - y142y0y2
= 0

x73x162x1 + x189x162x1 + x167x162x1 + x87x162x1 + x38x162x1 
- y162y20y1 - y162y34y1 - y162y0y1
= 0
x175x162x3 + x85x162x3 + x87x162x3 + x41x162x3 + x137x162x3 
- x162x51x3 
- y162y34y3 - y162y51y3 - y162y0y3
= 0


x68x8x2 + x175x8x2 + x158x8x2 + x98x8x2 
- x8x51x2 - x8x142x2 
- z8z91z2 - z8z0z2
= 0

x73x20x1 + x189x20x1 + x167x20x1 + x87x20x1 
+ z73z20z1 + z189z20z1 + z167z20z1 + z87z20z1 + z34z20z1 + z38z20z1 + z162z20z1 
= 0

x73x34x1 + x189x34x1 + x167x34x1 + x87x34x1 
- z34z20z1 - z34z0z1
= 0
x175x34x3 + x85x34x3 + x87x34x3 + x41x34x3 
- x34x51x3 
= 0

x73x38x1 + x189x38x1 + x167x38x1 + x87x38x1 
- x38x162x1 
- z38z20z1 - z38z0z1
= 0

x68x51x2 + x175x51x2 + x158x51x2 + x98x51x2 + x8x51x2 + x142x51x2 
- z51z91z2 - z51z0z2
= 0
x175x51x3 + x85x51x3 + x87x51x3 + x41x51x3 + x34x51x3 + x137x51x3 + x162x51x3 
= 0

x68x91x2 + x175x91x2 + x158x91x2 + x98x91x2 
+ z68z91z2 + z175z91z2 + z158z91z2 + z98z91z2 + z8z91z2 + z51z91z2 + z142z91z2 
= 0

x175x137x3 + x85x137x3 + x87x137x3 + x41x137x3 
- x137x51x3 - x137x162x3 
= 0

x68x142x2 + x175x142x2 + x158x142x2 + x98x142x2 + x8x142x2 
- x142x51x2 
- z142z91z2 - z142z0z2
= 0

x73x162x1 + x189x162x1 + x167x162x1 + x87x162x1 + x38x162x1 
- z162z20z1 - z162z0z1
= 0
x175x162x3 + x85x162x3 + x87x162x3 + x41x162x3 + x137x162x3 
- x162x51x3 
= 0


x68x8x2 + x175x8x2 + x158x8x2 + x98x8x2 
+ v68v8v2 + v175v8v2 + v158v8v2 + v98v8v2 + v51v8v2 
- x8x51x2 - x8x142x2 
- v8v91v2 - v8v142v2 - v8v0v2
= 0

x73x20x1 + x189x20x1 + x167x20x1 + x87x20x1 
- v20v38v1 - v20v162v1 - v20v0v1
= 0

x73x34x1 + x189x34x1 + x167x34x1 + x87x34x1 
- v34v38v1 - v34v162v1 - v34v0v1
= 0
x175x34x3 + x85x34x3 + x87x34x3 + x41x34x3 
- x34x51x3 
- v34v137v3 - v34v162v3 - v34v0v3
= 0

x73x38x1 + x189x38x1 + x167x38x1 + x87x38x1 
+ v73v38v1 + v189v38v1 + v167v38v1 + v87v38v1 + v20v38v1 + v34v38v1 
- x38x162x1 
- v38v162v1 - v38v0v1
= 0

x68x51x2 + x175x51x2 + x158x51x2 + x98x51x2 + x8x51x2 + x142x51x2 
- v51v8v2 - v51v91v2 - v51v142v2 - v51v0v2
= 0
x175x51x3 + x85x51x3 + x87x51x3 + x41x51x3 + x34x51x3 + x137x51x3 + x162x51x3 
- v51v137v3 - v51v162v3 - v51v0v3
= 0

x68x91x2 + x175x91x2 + x158x91x2 + x98x91x2 
+ v68v91v2 + v175v91v2 + v158v91v2 + v98v91v2 + v8v91v2 + v51v91v2 + v142v91v2 
= 0

x175x137x3 + x85x137x3 + x87x137x3 + x41x137x3 
+ v175v137v3 + v85v137v3 + v87v137v3 + v41v137v3 + v34v137v3 + v51v137v3 
- x137x51x3 - x137x162x3 
- v137v162v3 - v137v0v3
= 0

x68x142x2 + x175x142x2 + x158x142x2 + x98x142x2 + x8x142x2 
+ v68v142v2 + v175v142v2 + v158v142v2 + v98v142v2 + v8v142v2 + v51v142v2 
- x142x51x2 
- v142v91v2 - v142v0v2
= 0

x73x162x1 + x189x162x1 + x167x162x1 + x87x162x1 + x38x162x1 
+ v73v162v1 + v189v162v1 + v167v162v1 + v87v162v1 + v20v162v1 + v34v162v1 + v38v162v1 
= 0
x175x162x3 + x85x162x3 + x87x162x3 + x41x162x3 + x137x162x3 
+ v175v162v3 + v85v162v3 + v87v162v3 + v41v162v3 + v34v162v3 + v51v162v3 + v137v162v3 
- x162x51x3 
= 0


2X8 - x68x8x2 - x175x8x2 - x158x8x2 - x98x8x2 = 0
2X20 - x73x20x1 - x189x20x1 - x167x20x1 - x87x20x1 = 0
1X34 - x73x34x1 - x189x34x1 - x167x34x1 - x87x34x1 = 0
1X34 - x175x34x3 - x85x34x3 - x87x34x3 - x41x34x3 = 0
2X38 - x73x38x1 - x189x38x1 - x167x38x1 - x87x38x1 = 0
1X51 - x68x51x2 - x175x51x2 - x158x51x2 - x98x51x2 - x8x51x2 - x142x51x2 = 0
1X51 - x175x51x3 - x85x51x3 - x87x51x3 - x41x51x3 - x34x51x3 - x137x51x3 - x162x51x3 = 0
2X91 - x68x91x2 - x175x91x2 - x158x91x2 - x98x91x2 = 0
2X137 - x175x137x3 - x85x137x3 - x87x137x3 - x41x137x3 = 0
2X142 - x68x142x2 - x175x142x2 - x158x142x2 - x98x142x2 - x8x142x2 = 0
1X162 - x73x162x1 - x189x162x1 - x167x162x1 - x87x162x1 - x38x162x1 = 0
1X162 - x175x162x3 - x85x162x3 - x87x162x3 - x41x162x3 - x137x162x3 = 0

2Y20 - y73y20y1 - y189y20y1 - y167y20y1 - y87y20y1 - y38y20y1 - y162y20y1 = 0
1Y34 - y73y34y1 - y189y34y1 - y167y34y1 - y87y34y1 - y38y34y1 - y162y34y1 = 0
1Y34 - y175y34y3 - y85y34y3 - y87y34y3 - y41y34y3 - y137y34y3 - y162y34y3 = 0
1Y51 - y68y51y2 - y175y51y2 - y158y51y2 - y98y51y2 - y8y51y2 - y91y51y2 - y142y51y2 = 0
1Y51 - y175y51y3 - y85y51y3 - y87y51y3 - y41y51y3 - y34y51y3 - y137y51y3 - y162y51y3 = 0
2Y91 - y68y91y2 - y175y91y2 - y158y91y2 - y98y91y2 - y8y91y2 - y142y91y2 = 0

2Z20 - z73z20z1 - z189z20z1 - z167z20z1 - z87z20z1 - z34z20z1 - z38z20z1 - z162z20z1 = 0
2Z91 - z68z91z2 - z175z91z2 - z158z91z2 - z98z91z2 - z8z91z2 - z51z91z2 - z142z91z2 = 0

2V8 - v68v8v2 - v175v8v2 - v158v8v2 - v98v8v2 - v51v8v2 = 0
2V38 - v73v38v1 - v189v38v1 - v167v38v1 - v87v38v1 - v20v38v1 - v34v38v1 = 0
2V91 - v68v91v2 - v175v91v2 - v158v91v2 - v98v91v2 - v8v91v2 - v51v91v2 - v142v91v2 = 0
2V137 - v175v137v3 - v85v137v3 - v87v137v3 - v41v137v3 - v34v137v3 - v51v137v3 = 0
2V142 - v68v142v2 - v175v142v2 - v158v142v2 - v98v142v2 - v8v142v2 - v51v142v2 = 0
1V162 - v73v162v1 - v189v162v1 - v167v162v1 - v87v162v1 - v20v162v1 - v34v162v1 - v38v162v1 = 0
1V162 - v175v162v3 - v85v162v3 - v87v162v3 - v41v162v3 - v34v162v3 - v51v162v3 - v137v162v3 = 0


s68 - s8 + 5.812077a68a8a2 <= 4.17
s68 - s51 + 5.589911a68a51a2 <= 4.17
s68 - s91 + 5.698588a68a91a2 <= 4.17
s68 - s142 + 5.776855a68a142a2 <= 4.17
s73 - s20 + 5.835629a73a20a1 <= 4.58
s73 - s34 + 5.919738a73a34a1 <= 4.58
s73 - s38 + 5.860258a73a38a1 <= 4.58
s73 - s162 + 5.839279a73a162a1 <= 4.58
s175 - s8 + 6.187464a175a8a2 <= 4.69
s175 - s34 + 5.905044a175a34a3 <= 4.69
s175 - s51 + 6.023972a175a51a2 <= 4.69
s175 - s51 + 6.023972a175a51a3 <= 4.69
s175 - s91 + 6.070577a175a91a2 <= 4.69
s175 - s137 + 6.213856a175a137a3 <= 4.69
s175 - s142 + 6.150446a175a142a2 <= 4.69
s175 - s162 + 6.177018a175a162a3 <= 4.69
s189 - s20 + 6.049391a189a20a1 <= 4.74
s189 - s34 + 5.923028a189a34a1 <= 4.74
s189 - s38 + 6.219431a189a38a1 <= 4.74
s189 - s162 + 6.180125a189a162a1 <= 4.74
s158 - s8 + 6.392890a158a8a2 <= 5.19
s158 - s51 + 6.915004a158a51a2 <= 5.19
s158 - s91 + 6.599215a158a91a2 <= 5.19
s158 - s142 + 6.431244a158a142a2 <= 5.19
s167 - s20 + 6.470157a167a20a1 <= 5.24
s167 - s34 + 6.620810a167a34a1 <= 5.24
s167 - s38 + 6.429343a167a38a1 <= 5.24
s167 - s162 + 6.413751a167a162a1 <= 5.24
s85 - s34 + 6.720157a85a34a3 <= 5.24
s85 - s51 + 6.841342a85a51a3 <= 5.24
s85 - s137 + 6.362525a85a137a3 <= 5.24
s85 - s162 + 6.376661a85a162a3 <= 5.24
s87 - s20 + 6.422582a87a20a1 <= 5.21
s87 - s34 + 6.571538a87a34a1 <= 5.21
s87 - s34 + 6.571538a87a34a3 <= 5.21
s87 - s38 + 6.398451a87a38a1 <= 5.21
s87 - s51 + 6.700993a87a51a3 <= 5.21
s87 - s137 + 6.399736a87a137a3 <= 5.21
s87 - s162 + 6.378799a87a162a1 <= 5.21
s87 - s162 + 6.378799a87a162a3 <= 5.21
s41 - s34 + 6.941746a41a34a3 <= 5.88
s41 - s51 + 7.060960a41a51a3 <= 5.88
s41 - s137 + 7.284717a41a137a3 <= 5.88
s41 - s162 + 7.238609a41a162a3 <= 5.88
s98 - s8 + 6.638034a98a8a2 <= 5.62
s98 - s51 + 7.192142a98a51a2 <= 5.62
s98 - s91 + 6.857322a98a91a2 <= 5.62
s98 - s142 + 6.683619a98a142a2 <= 5.62
s8 - s51 + 7.556257a8a51a2 <= 6.00
s8 - s142 + 7.047141a8a142a2 <= 6.00
s34 - s51 + 7.271421a34a51a3 <= 6.13
s38 - s162 + 7.052068a38a162a1 <= 6.00
s137 - s51 + 7.595423a137a51a3 <= 6.02
s137 - s162 + 7.067141a137a162a3 <= 6.02
s142 - s51 + 7.629117a142a51a2 <= 6.12
s162 - s51 + 7.638310a162a51a3 <= 6.11

t68 - t51 + 5.589911b68b51b2 <= 4.17
t68 - t91 + 5.698588b68b91b2 <= 4.17
t73 - t20 + 5.835629b73b20b1 <= 4.58
t73 - t34 + 5.919738b73b34b1 <= 4.58
t175 - t34 + 5.905044b175b34b3 <= 4.69
t175 - t51 + 6.023972b175b51b2 <= 4.69
t175 - t51 + 6.023972b175b51b3 <= 4.69
t175 - t91 + 6.070577b175b91b2 <= 4.69
t189 - t20 + 6.049391b189b20b1 <= 4.74
t189 - t34 + 5.923028b189b34b1 <= 4.74
t158 - t51 + 6.915004b158b51b2 <= 5.19
t158 - t91 + 6.599215b158b91b2 <= 5.19
t167 - t20 + 6.470157b167b20b1 <= 5.24
t167 - t34 + 6.620810b167b34b1 <= 5.24
t85 - t34 + 6.720157b85b34b3 <= 5.24
t85 - t51 + 6.841342b85b51b3 <= 5.24
t87 - t20 + 6.422582b87b20b1 <= 5.21
t87 - t34 + 6.571538b87b34b1 <= 5.21
t87 - t34 + 6.571538b87b34b3 <= 5.21
t87 - t51 + 6.700993b87b51b3 <= 5.21
t41 - t34 + 6.941746b41b34b3 <= 5.88
t41 - t51 + 7.060960b41b51b3 <= 5.88
t98 - t51 + 7.192142b98b51b2 <= 5.62
t98 - t91 + 6.857322b98b91b2 <= 5.62
t8 - t51 + 21.556257b8b51b2 <= 20.00
t8 - t91 + 21.220100b8b91b2 <= 20.00
t34 - t51 + 7.271421b34b51b3 <= 6.13
t38 - t20 + 21.249889b38b20b1 <= 20.00
t38 - t34 + 21.477074b38b34b1 <= 20.00
t91 - t51 + 7.481500b91b51b2 <= 6.14
t137 - t34 + 21.473475b137b34b3 <= 20.00
t137 - t51 + 21.575422b137b51b3 <= 20.00
t142 - t51 + 21.509117b142b51b2 <= 20.00
t142 - t91 + 21.173845b142b91b2 <= 20.00
t162 - t20 + 21.197990b162b20b1 <= 20.00
t162 - t34 + 21.427603b162b34b1 <= 20.00
t162 - t34 + 21.427603b162b34b3 <= 20.00
t162 - t51 + 21.528309b162b51b3 <= 20.00

u68 - u91 + 5.698588c68c91c2 <= 4.17
u73 - u20 + 5.835629c73c20c1 <= 4.58
u175 - u91 + 6.070577c175c91c2 <= 4.69
u189 - u20 + 6.049391c189c20c1 <= 4.74
u158 - u91 + 6.599215c158c91c2 <= 5.19
u167 - u20 + 6.470157c167c20c1 <= 5.24
u87 - u20 + 6.422582c87c20c1 <= 5.21
u98 - u91 + 6.857322c98c91c2 <= 5.62
u8 - u91 + 21.220100c8c91c2 <= 20.00
u34 - u20 + 21.240370c34c20c1 <= 20.00
u38 - u20 + 21.249889c38c20c1 <= 20.00
u51 - u91 + 21.341499c51c91c2 <= 20.00
u142 - u91 + 21.173845c142c91c2 <= 20.00
u162 - u20 + 21.197990c162c20c1 <= 20.00

r68 - r8 + 5.812077d68d8d2 <= 4.17
r68 - r91 + 5.698588d68d91d2 <= 4.17
r68 - r142 + 5.776855d68d142d2 <= 4.17
r73 - r38 + 5.860258d73d38d1 <= 4.58
r73 - r162 + 5.839279d73d162d1 <= 4.58
r175 - r8 + 6.187464d175d8d2 <= 4.69
r175 - r91 + 6.070577d175d91d2 <= 4.69
r175 - r137 + 6.213856d175d137d3 <= 4.69
r175 - r142 + 6.150446d175d142d2 <= 4.69
r175 - r162 + 6.177018d175d162d3 <= 4.69
r189 - r38 + 6.219431d189d38d1 <= 4.74
r189 - r162 + 6.180125d189d162d1 <= 4.74
r158 - r8 + 6.392890d158d8d2 <= 5.19
r158 - r91 + 6.599215d158d91d2 <= 5.19
r158 - r142 + 6.431244d158d142d2 <= 5.19
r167 - r38 + 6.429343d167d38d1 <= 5.24
r167 - r162 + 6.413751d167d162d1 <= 5.24
r85 - r137 + 6.362525d85d137d3 <= 5.24
r85 - r162 + 6.376661d85d162d3 <= 5.24
r87 - r38 + 6.398451d87d38d1 <= 5.21
r87 - r137 + 6.399736d87d137d3 <= 5.21
r87 - r162 + 6.378799d87d162d1 <= 5.21
r87 - r162 + 6.378799d87d162d3 <= 5.21
r41 - r137 + 7.284717d41d137d3 <= 5.88
r41 - r162 + 7.238609d41d162d3 <= 5.88
r98 - r8 + 6.638034d98d8d2 <= 5.62
r98 - r91 + 6.857322d98d91d2 <= 5.62
r98 - r142 + 6.683619d98d142d2 <= 5.62
r8 - r91 + 7.220101d8d91d2 <= 6.00
r8 - r142 + 7.047141d8d142d2 <= 6.00
r20 - r38 + 21.249889d20d38d1 <= 20.00
r20 - r162 + 21.197990d20d162d1 <= 20.00
r34 - r38 + 21.477074d34d38d1 <= 20.00
r34 - r137 + 21.473475d34d137d3 <= 20.00
r34 - r162 + 21.427603d34d162d1 <= 20.00
r34 - r162 + 21.427603d34d162d3 <= 20.00
r38 - r162 + 7.052068d38d162d1 <= 6.00
r51 - r8 + 21.556257d51d8d2 <= 20.00
r51 - r91 + 21.341499d51d91d2 <= 20.00
r51 - r137 + 21.575422d51d137d3 <= 20.00
r51 - r142 + 21.509117d51d142d2 <= 20.00
r51 - r162 + 21.528309d51d162d3 <= 20.00
r137 - r162 + 7.067141d137d162d3 <= 6.02
r142 - r91 + 7.293845d142d91d2 <= 6.12

x68x8x2 + x175x8x2 + x158x8x2 + x98x8x2 
- x8x51x2 - x8x142x2 
- 2w8 <= 0

x73x20x1 + x189x20x1 + x167x20x1 + x87x20x1 

- 2w20 <= 0

x73x34x1 + x189x34x1 + x167x34x1 + x87x34x1 + x175x34x3 + x85x34x3 + x87x34x3 + x41x34x3 
- x34x51x3 
- 2w34 <= 0

x73x38x1 + x189x38x1 + x167x38x1 + x87x38x1 
- x38x162x1 
- 2w38 <= 0

x68x51x2 + x175x51x2 + x158x51x2 + x98x51x2 + x8x51x2 + x142x51x2 + x175x51x3 + x85x51x3 + x87x51x3 + x41x51x3 + x34x51x3 + x137x51x3 + x162x51x3 

- 2w51 <= 0

x68x91x2 + x175x91x2 + x158x91x2 + x98x91x2 

- 2w91 <= 0

x175x137x3 + x85x137x3 + x87x137x3 + x41x137x3 
- x137x51x3 - x137x162x3 
- 2w137 <= 0

x68x142x2 + x175x142x2 + x158x142x2 + x98x142x2 + x8x142x2 
- x142x51x2 
- 2w142 <= 0

x73x162x1 + x189x162x1 + x167x162x1 + x87x162x1 + x38x162x1 + x175x162x3 + x85x162x3 + x87x162x3 + x41x162x3 + x137x162x3 
- x162x51x3 
- 2w162 <= 0

x68x8x2 + x175x8x2 + x158x8x2 + x98x8x2 
- x8x51x2 - x8x142x2 
- w8 >= 0

x73x20x1 + x189x20x1 + x167x20x1 + x87x20x1 

- w20 >= 0

x73x34x1 + x189x34x1 + x167x34x1 + x87x34x1 + x175x34x3 + x85x34x3 + x87x34x3 + x41x34x3 
- x34x51x3 
- w34 >= 0

x73x38x1 + x189x38x1 + x167x38x1 + x87x38x1 
- x38x162x1 
- w38 >= 0

x68x51x2 + x175x51x2 + x158x51x2 + x98x51x2 + x8x51x2 + x142x51x2 + x175x51x3 + x85x51x3 + x87x51x3 + x41x51x3 + x34x51x3 + x137x51x3 + x162x51x3 

- w51 >= 0

x68x91x2 + x175x91x2 + x158x91x2 + x98x91x2 

- w91 >= 0

x175x137x3 + x85x137x3 + x87x137x3 + x41x137x3 
- x137x51x3 - x137x162x3 
- w137 >= 0

x68x142x2 + x175x142x2 + x158x142x2 + x98x142x2 + x8x142x2 
- x142x51x2 
- w142 >= 0

x73x162x1 + x189x162x1 + x167x162x1 + x87x162x1 + x38x162x1 + x175x162x3 + x85x162x3 + x87x162x3 + x41x162x3 + x137x162x3 
- x162x51x3 
- w162 >= 0

s68 - t68 + 4.17w68 <= 4.17
s73 - t73 + 4.58w73 <= 4.58
s175 - t175 + 4.69w175 <= 4.69
s189 - t189 + 4.74w189 <= 4.74
s158 - t158 + 5.19w158 <= 5.19
s167 - t167 + 5.24w167 <= 5.24
s85 - t85 + 5.24w85 <= 5.24
s87 - t87 + 5.21w87 <= 5.21
s41 - t41 + 5.88w41 <= 5.88
s98 - t98 + 5.62w98 <= 5.62
s8 - t8 + 6.00w8 <= 6.00
s20 - t20 + 6.01w20 <= 6.01
s34 - t34 + 6.13w34 <= 6.13
s38 - t38 + 6.00w38 <= 6.00
s51 - t51 + 6.66w51 <= 6.66
s91 - t91 + 6.14w91 <= 6.14
s137 - t137 + 6.02w137 <= 6.02
s142 - t142 + 6.12w142 <= 6.12
s162 - t162 + 6.11w162 <= 6.11
s68 - u68 + 4.17w68 <= 4.17
s73 - u73 + 4.58w73 <= 4.58
s175 - u175 + 4.69w175 <= 4.69
s189 - u189 + 4.74w189 <= 4.74
s158 - u158 + 5.19w158 <= 5.19
s167 - u167 + 5.24w167 <= 5.24
s85 - u85 + 5.24w85 <= 5.24
s87 - u87 + 5.21w87 <= 5.21
s41 - u41 + 5.88w41 <= 5.88
s98 - u98 + 5.62w98 <= 5.62
s8 - u8 + 6.00w8 <= 6.00
s20 - u20 + 6.01w20 <= 6.01
s34 - u34 + 6.13w34 <= 6.13
s38 - u38 + 6.00w38 <= 6.00
s51 - u51 + 6.66w51 <= 6.66
s91 - u91 + 6.14w91 <= 6.14
s137 - u137 + 6.02w137 <= 6.02
s142 - u142 + 6.12w142 <= 6.12
s162 - u162 + 6.11w162 <= 6.11
s68 - r68 + 4.17w68 <= 4.17
s73 - r73 + 4.58w73 <= 4.58
s175 - r175 + 4.69w175 <= 4.69
s189 - r189 + 4.74w189 <= 4.74
s158 - r158 + 5.19w158 <= 5.19
s167 - r167 + 5.24w167 <= 5.24
s85 - r85 + 5.24w85 <= 5.24
s87 - r87 + 5.21w87 <= 5.21
s41 - r41 + 5.88w41 <= 5.88
s98 - r98 + 5.62w98 <= 5.62
s8 - r8 + 6.00w8 <= 6.00
s20 - r20 + 6.01w20 <= 6.01
s34 - r34 + 6.13w34 <= 6.13
s38 - r38 + 6.00w38 <= 6.00
s51 - r51 + 6.66w51 <= 6.66
s91 - r91 + 6.14w91 <= 6.14
s137 - r137 + 6.02w137 <= 6.02
s142 - r142 + 6.12w142 <= 6.12
s162 - r162 + 6.11w162 <= 6.11

s68 - t68 - 4.17w68 >= -4.17
s73 - t73 - 4.58w73 >= -4.58
s175 - t175 - 4.69w175 >= -4.69
s189 - t189 - 4.74w189 >= -4.74
s158 - t158 - 5.19w158 >= -5.19
s167 - t167 - 5.24w167 >= -5.24
s85 - t85 - 5.24w85 >= -5.24
s87 - t87 - 5.21w87 >= -5.21
s41 - t41 - 5.88w41 >= -5.88
s98 - t98 - 5.62w98 >= -5.62
s8 - t8 - 20.00w8 >= -20.00
s20 - t20 - 6.01w20 >= -6.01
s34 - t34 - 6.13w34 >= -6.13
s38 - t38 - 20.00w38 >= -20.00
s51 - t51 - 6.66w51 >= -6.66
s91 - t91 - 6.14w91 >= -6.14
s137 - t137 - 20.00w137 >= -20.00
s142 - t142 - 20.00w142 >= -20.00
s162 - t162 - 20.00w162 >= -20.00


s68 - u68 - 4.17w68 >= -4.17
s73 - u73 - 4.58w73 >= -4.58
s175 - u175 - 4.69w175 >= -4.69
s189 - u189 - 4.74w189 >= -4.74
s158 - u158 - 5.19w158 >= -5.19
s167 - u167 - 5.24w167 >= -5.24
s85 - u85 - 5.24w85 >= -5.24
s87 - u87 - 5.21w87 >= -5.21
s41 - u41 - 5.88w41 >= -5.88
s98 - u98 - 5.62w98 >= -5.62
s8 - u8 - 20.00w8 >= -20.00
s20 - u20 - 6.13w20 >= -6.13
s34 - u34 - 20.00w34 >= -20.00
s38 - u38 - 20.00w38 >= -20.00
s51 - u51 - 20.00w51 >= -20.00
s91 - u91 - 6.16w91 >= -6.16
s137 - u137 - 20.00w137 >= -20.00
s142 - u142 - 20.00w142 >= -20.00
s162 - u162 - 20.00w162 >= -20.00


s68 - r68 - 4.17w68 >= -4.17
s73 - r73 - 4.58w73 >= -4.58
s175 - r175 - 4.69w175 >= -4.69
s189 - r189 - 4.74w189 >= -4.74
s158 - r158 - 5.19w158 >= -5.19
s167 - r167 - 5.24w167 >= -5.24
s85 - r85 - 5.24w85 >= -5.24
s87 - r87 - 5.21w87 >= -5.21
s41 - r41 - 5.88w41 >= -5.88
s98 - r98 - 5.62w98 >= -5.62
s8 - r8 - 6.00w8 >= -6.00
s20 - r20 - 20.00w20 >= -20.00
s34 - r34 - 20.00w34 >= -20.00
s38 - r38 - 6.00w38 >= -6.00
s51 - r51 - 20.00w51 >= -20.00
s91 - r91 - 6.85w91 >= -6.85
s137 - r137 - 6.02w137 >= -6.02
s142 - r142 - 6.12w142 >= -6.12
s162 - r162 - 6.11w162 >= -6.11


s8 + 6.00a68a8a2 <= 12.00
s8 + 6.00a175a8a2 <= 12.00
s8 + 6.00a158a8a2 <= 12.00
s8 + 6.00a98a8a2 <= 12.00
s20 + 6.01a73a20a1 <= 12.01
s20 + 6.01a189a20a1 <= 12.01
s20 + 6.01a167a20a1 <= 12.01
s20 + 6.01a87a20a1 <= 12.01
s34 + 6.13a73a34a1 <= 12.13
s34 + 6.13a175a34a3 <= 12.13
s34 + 6.13a189a34a1 <= 12.13
s34 + 6.13a167a34a1 <= 12.13
s34 + 6.13a85a34a3 <= 12.13
s34 + 6.13a87a34a1 <= 12.13
s34 + 6.13a87a34a3 <= 12.13
s34 + 6.13a41a34a3 <= 12.13
s38 + 6.00a73a38a1 <= 12.00
s38 + 6.00a189a38a1 <= 12.00
s38 + 6.00a167a38a1 <= 12.00
s38 + 6.00a87a38a1 <= 12.00
s51 + 6.66a68a51a2 <= 12.66
s51 + 6.66a175a51a2 <= 12.66
s51 + 6.66a175a51a3 <= 12.66
s51 + 6.66a158a51a2 <= 12.66
s51 + 6.66a85a51a3 <= 12.66
s51 + 6.66a87a51a3 <= 12.66
s51 + 6.66a41a51a3 <= 12.66
s51 + 6.66a98a51a2 <= 12.66
s51 + 6.66a8a51a2 <= 12.66
s51 + 6.66a34a51a3 <= 12.66
s51 + 6.66a137a51a3 <= 12.66
s51 + 6.66a142a51a2 <= 12.66
s51 + 6.66a162a51a3 <= 12.66
s91 + 6.14a68a91a2 <= 12.14
s91 + 6.14a175a91a2 <= 12.14
s91 + 6.14a158a91a2 <= 12.14
s91 + 6.14a98a91a2 <= 12.14
s137 + 6.02a175a137a3 <= 12.02
s137 + 6.02a85a137a3 <= 12.02
s137 + 6.02a87a137a3 <= 12.02
s137 + 6.02a41a137a3 <= 12.02
s142 + 6.12a68a142a2 <= 12.12
s142 + 6.12a175a142a2 <= 12.12
s142 + 6.12a158a142a2 <= 12.12
s142 + 6.12a98a142a2 <= 12.12
s142 + 6.12a8a142a2 <= 12.12
s162 + 6.11a73a162a1 <= 12.11
s162 + 6.11a175a162a3 <= 12.11
s162 + 6.11a189a162a1 <= 12.11
s162 + 6.11a167a162a1 <= 12.11
s162 + 6.11a85a162a3 <= 12.11
s162 + 6.11a87a162a1 <= 12.11
s162 + 6.11a87a162a3 <= 12.11
s162 + 6.11a41a162a3 <= 12.11
s162 + 6.11a38a162a1 <= 12.11
s162 + 6.11a137a162a3 <= 12.11

u20 - 6.0c73c20c1 > 0
u20 - 6.0c189c20c1 > 0
u20 - 6.0c167c20c1 > 0
u20 - 6.0c87c20c1 > 0
u20 - 6.0c34c20c1 > 0
u20 - 6.0c38c20c1 > 0
u20 - 6.0c162c20c1 > 0
u91 - 6.0c68c91c2 > 0
u91 - 6.0c175c91c2 > 0
u91 - 6.0c158c91c2 > 0
u91 - 6.0c98c91c2 > 0
u91 - 6.0c8c91c2 > 0
u91 - 6.0c51c91c2 > 0
u91 - 6.0c142c91c2 > 0

r8 - 6.0d68d8d2 > 0
r8 - 6.0d175d8d2 > 0
r8 - 6.0d158d8d2 > 0
r8 - 6.0d98d8d2 > 0
r8 - 6.0d51d8d2 > 0
r38 - 6.0d73d38d1 > 0
r38 - 6.0d189d38d1 > 0
r38 - 6.0d167d38d1 > 0
r38 - 6.0d87d38d1 > 0
r38 - 6.0d20d38d1 > 0
r38 - 6.0d34d38d1 > 0
r91 - 6.0d68d91d2 > 0
r91 - 6.0d175d91d2 > 0
r91 - 6.0d158d91d2 > 0
r91 - 6.0d98d91d2 > 0
r91 - 6.0d8d91d2 > 0
r91 - 6.0d51d91d2 > 0
r91 - 6.0d142d91d2 > 0
r137 - 6.0d175d137d3 > 0
r137 - 6.0d85d137d3 > 0
r137 - 6.0d87d137d3 > 0
r137 - 6.0d41d137d3 > 0
r137 - 6.0d34d137d3 > 0
r137 - 6.0d51d137d3 > 0
r142 - 6.0d68d142d2 > 0
r142 - 6.0d175d142d2 > 0
r142 - 6.0d158d142d2 > 0
r142 - 6.0d98d142d2 > 0
r142 - 6.0d8d142d2 > 0
r142 - 6.0d51d142d2 > 0
r162 - 6.0d73d162d1 > 0
r162 - 6.0d175d162d3 > 0
r162 - 6.0d189d162d1 > 0
r162 - 6.0d167d162d1 > 0
r162 - 6.0d85d162d3 > 0
r162 - 6.0d87d162d1 > 0
r162 - 6.0d87d162d3 > 0
r162 - 6.0d41d162d3 > 0
r162 - 6.0d20d162d1 > 0
r162 - 6.0d34d162d1 > 0
r162 - 6.0d34d162d3 > 0
r162 - 6.0d38d162d1 > 0
r162 - 6.0d51d162d3 > 0
r162 - 6.0d137d162d3 > 0


a68a8a2 + b68b8b2 <= 1
a175a8a2 + b175b8b2 <= 1
a158a8a2 + b158b8b2 <= 1
a98a8a2 + b98b8b2 <= 1
a73a20a1 + b73b20b1 <= 1
a189a20a1 + b189b20b1 <= 1
a167a20a1 + b167b20b1 <= 1
a87a20a1 + b87b20b1 <= 1
a73a34a1 + b73b34b1 <= 1
a175a34a3 + b175b34b3 <= 1
a189a34a1 + b189b34b1 <= 1
a167a34a1 + b167b34b1 <= 1
a85a34a3 + b85b34b3 <= 1
a87a34a1 + b87b34b1 <= 1
a87a34a3 + b87b34b3 <= 1
a41a34a3 + b41b34b3 <= 1
a73a38a1 + b73b38b1 <= 1
a189a38a1 + b189b38b1 <= 1
a167a38a1 + b167b38b1 <= 1
a87a38a1 + b87b38b1 <= 1
a68a51a2 + b68b51b2 <= 1
a175a51a2 + b175b51b2 <= 1
a175a51a3 + b175b51b3 <= 1
a158a51a2 + b158b51b2 <= 1
a85a51a3 + b85b51b3 <= 1
a87a51a3 + b87b51b3 <= 1
a41a51a3 + b41b51b3 <= 1
a98a51a2 + b98b51b2 <= 1
a8a51a2 + b8b51b2 <= 1
a34a51a3 + b34b51b3 <= 1
a137a51a3 + b137b51b3 <= 1
a142a51a2 + b142b51b2 <= 1
a162a51a3 + b162b51b3 <= 1
a68a91a2 + b68b91b2 <= 1
a175a91a2 + b175b91b2 <= 1
a158a91a2 + b158b91b2 <= 1
a98a91a2 + b98b91b2 <= 1
a175a137a3 + b175b137b3 <= 1
a85a137a3 + b85b137b3 <= 1
a87a137a3 + b87b137b3 <= 1
a41a137a3 + b41b137b3 <= 1
a68a142a2 + b68b142b2 <= 1
a175a142a2 + b175b142b2 <= 1
a158a142a2 + b158b142b2 <= 1
a98a142a2 + b98b142b2 <= 1
a8a142a2 + b8b142b2 <= 1
a73a162a1 + b73b162b1 <= 1
a175a162a3 + b175b162b3 <= 1
a189a162a1 + b189b162b1 <= 1
a167a162a1 + b167b162b1 <= 1
a85a162a3 + b85b162b3 <= 1
a87a162a1 + b87b162b1 <= 1
a87a162a3 + b87b162b3 <= 1
a41a162a3 + b41b162b3 <= 1
a38a162a1 + b38b162b1 <= 1
a137a162a3 + b137b162b3 <= 1


a68a8a2 + c68c8c2 <= 1
a175a8a2 + c175c8c2 <= 1
a158a8a2 + c158c8c2 <= 1
a98a8a2 + c98c8c2 <= 1
a73a20a1 + c73c20c1 <= 1
a189a20a1 + c189c20c1 <= 1
a167a20a1 + c167c20c1 <= 1
a87a20a1 + c87c20c1 <= 1
a73a34a1 + c73c34c1 <= 1
a175a34a3 + c175c34c3 <= 1
a189a34a1 + c189c34c1 <= 1
a167a34a1 + c167c34c1 <= 1
a85a34a3 + c85c34c3 <= 1
a87a34a1 + c87c34c1 <= 1
a87a34a3 + c87c34c3 <= 1
a41a34a3 + c41c34c3 <= 1
a73a38a1 + c73c38c1 <= 1
a189a38a1 + c189c38c1 <= 1
a167a38a1 + c167c38c1 <= 1
a87a38a1 + c87c38c1 <= 1
a68a51a2 + c68c51c2 <= 1
a175a51a2 + c175c51c2 <= 1
a175a51a3 + c175c51c3 <= 1
a158a51a2 + c158c51c2 <= 1
a85a51a3 + c85c51c3 <= 1
a87a51a3 + c87c51c3 <= 1
a41a51a3 + c41c51c3 <= 1
a98a51a2 + c98c51c2 <= 1
a8a51a2 + c8c51c2 <= 1
a34a51a3 + c34c51c3 <= 1
a137a51a3 + c137c51c3 <= 1
a142a51a2 + c142c51c2 <= 1
a162a51a3 + c162c51c3 <= 1
a68a91a2 + c68c91c2 <= 1
a175a91a2 + c175c91c2 <= 1
a158a91a2 + c158c91c2 <= 1
a98a91a2 + c98c91c2 <= 1
a175a137a3 + c175c137c3 <= 1
a85a137a3 + c85c137c3 <= 1
a87a137a3 + c87c137c3 <= 1
a41a137a3 + c41c137c3 <= 1
a68a142a2 + c68c142c2 <= 1
a175a142a2 + c175c142c2 <= 1
a158a142a2 + c158c142c2 <= 1
a98a142a2 + c98c142c2 <= 1
a8a142a2 + c8c142c2 <= 1
a73a162a1 + c73c162c1 <= 1
a175a162a3 + c175c162c3 <= 1
a189a162a1 + c189c162c1 <= 1
a167a162a1 + c167c162c1 <= 1
a85a162a3 + c85c162c3 <= 1
a87a162a1 + c87c162c1 <= 1
a87a162a3 + c87c162c3 <= 1
a41a162a3 + c41c162c3 <= 1
a38a162a1 + c38c162c1 <= 1
a137a162a3 + c137c162c3 <= 1


a68a8a2 + d68d8d2 <= 1
a175a8a2 + d175d8d2 <= 1
a158a8a2 + d158d8d2 <= 1
a98a8a2 + d98d8d2 <= 1
a73a20a1 + d73d20d1 <= 1
a189a20a1 + d189d20d1 <= 1
a167a20a1 + d167d20d1 <= 1
a87a20a1 + d87d20d1 <= 1
a73a34a1 + d73d34d1 <= 1
a175a34a3 + d175d34d3 <= 1
a189a34a1 + d189d34d1 <= 1
a167a34a1 + d167d34d1 <= 1
a85a34a3 + d85d34d3 <= 1
a87a34a1 + d87d34d1 <= 1
a87a34a3 + d87d34d3 <= 1
a41a34a3 + d41d34d3 <= 1
a73a38a1 + d73d38d1 <= 1
a189a38a1 + d189d38d1 <= 1
a167a38a1 + d167d38d1 <= 1
a87a38a1 + d87d38d1 <= 1
a68a51a2 + d68d51d2 <= 1
a175a51a2 + d175d51d2 <= 1
a175a51a3 + d175d51d3 <= 1
a158a51a2 + d158d51d2 <= 1
a85a51a3 + d85d51d3 <= 1
a87a51a3 + d87d51d3 <= 1
a41a51a3 + d41d51d3 <= 1
a98a51a2 + d98d51d2 <= 1
a8a51a2 + d8d51d2 <= 1
a34a51a3 + d34d51d3 <= 1
a137a51a3 + d137d51d3 <= 1
a142a51a2 + d142d51d2 <= 1
a162a51a3 + d162d51d3 <= 1
a68a91a2 + d68d91d2 <= 1
a175a91a2 + d175d91d2 <= 1
a158a91a2 + d158d91d2 <= 1
a98a91a2 + d98d91d2 <= 1
a175a137a3 + d175d137d3 <= 1
a85a137a3 + d85d137d3 <= 1
a87a137a3 + d87d137d3 <= 1
a41a137a3 + d41d137d3 <= 1
a68a142a2 + d68d142d2 <= 1
a175a142a2 + d175d142d2 <= 1
a158a142a2 + d158d142d2 <= 1
a98a142a2 + d98d142d2 <= 1
a8a142a2 + d8d142d2 <= 1
a73a162a1 + d73d162d1 <= 1
a175a162a3 + d175d162d3 <= 1
a189a162a1 + d189d162d1 <= 1
a167a162a1 + d167d162d1 <= 1
a85a162a3 + d85d162d3 <= 1
a87a162a1 + d87d162d1 <= 1
a87a162a3 + d87d162d3 <= 1
a41a162a3 + d41d162d3 <= 1
a38a162a1 + d38d162d1 <= 1
a137a162a3 + d137d162d3 <= 1

x68x8x2 - 2a68a8a2 <= 0
x68x51x2 - 1a68a51a2 <= 0
x68x91x2 - 2a68a91a2 <= 0
x68x142x2 - 2a68a142a2 <= 0
x73x20x1 - 2a73a20a1 <= 0
x73x34x1 - 1a73a34a1 <= 0
x73x38x1 - 2a73a38a1 <= 0
x73x162x1 - 1a73a162a1 <= 0
x175x8x2 - 2a175a8a2 <= 0
x175x34x3 - 1a175a34a3 <= 0
x175x51x2 - 1a175a51a2 <= 0
x175x51x3 - 1a175a51a3 <= 0
x175x91x2 - 2a175a91a2 <= 0
x175x137x3 - 2a175a137a3 <= 0
x175x142x2 - 2a175a142a2 <= 0
x175x162x3 - 1a175a162a3 <= 0
x189x20x1 - 2a189a20a1 <= 0
x189x34x1 - 1a189a34a1 <= 0
x189x38x1 - 2a189a38a1 <= 0
x189x162x1 - 1a189a162a1 <= 0
x158x8x2 - 2a158a8a2 <= 0
x158x51x2 - 1a158a51a2 <= 0
x158x91x2 - 2a158a91a2 <= 0
x158x142x2 - 2a158a142a2 <= 0
x167x20x1 - 2a167a20a1 <= 0
x167x34x1 - 1a167a34a1 <= 0
x167x38x1 - 2a167a38a1 <= 0
x167x162x1 - 1a167a162a1 <= 0
x85x34x3 - 1a85a34a3 <= 0
x85x51x3 - 1a85a51a3 <= 0
x85x137x3 - 2a85a137a3 <= 0
x85x162x3 - 1a85a162a3 <= 0
x87x20x1 - 2a87a20a1 <= 0
x87x34x1 - 1a87a34a1 <= 0
x87x34x3 - 1a87a34a3 <= 0
x87x38x1 - 2a87a38a1 <= 0
x87x51x3 - 1a87a51a3 <= 0
x87x137x3 - 2a87a137a3 <= 0
x87x162x1 - 1a87a162a1 <= 0
x87x162x3 - 1a87a162a3 <= 0
x41x34x3 - 1a41a34a3 <= 0
x41x51x3 - 1a41a51a3 <= 0
x41x137x3 - 2a41a137a3 <= 0
x41x162x3 - 1a41a162a3 <= 0
x98x8x2 - 2a98a8a2 <= 0
x98x51x2 - 1a98a51a2 <= 0
x98x91x2 - 2a98a91a2 <= 0
x98x142x2 - 2a98a142a2 <= 0
x8x51x2 - 1a8a51a2 <= 0
x8x142x2 - 2a8a142a2 <= 0
x34x51x3 - 1a34a51a3 <= 0
x38x162x1 - 1a38a162a1 <= 0
x137x51x3 - 1a137a51a3 <= 0
x137x162x3 - 1a137a162a3 <= 0
x142x51x2 - 1a142a51a2 <= 0
x162x51x3 - 1a162a51a3 <= 0
y68y51y2 - 1b68b51b2 <= 0
y68y91y2 - 2b68b91b2 <= 0
y73y20y1 - 2b73b20b1 <= 0
y73y34y1 - 1b73b34b1 <= 0
y175y34y3 - 1b175b34b3 <= 0
y175y51y2 - 1b175b51b2 <= 0
y175y51y3 - 1b175b51b3 <= 0
y175y91y2 - 2b175b91b2 <= 0
y189y20y1 - 2b189b20b1 <= 0
y189y34y1 - 1b189b34b1 <= 0
y158y51y2 - 1b158b51b2 <= 0
y158y91y2 - 2b158b91b2 <= 0
y167y20y1 - 2b167b20b1 <= 0
y167y34y1 - 1b167b34b1 <= 0
y85y34y3 - 1b85b34b3 <= 0
y85y51y3 - 1b85b51b3 <= 0
y87y20y1 - 2b87b20b1 <= 0
y87y34y1 - 1b87b34b1 <= 0
y87y34y3 - 1b87b34b3 <= 0
y87y51y3 - 1b87b51b3 <= 0
y41y34y3 - 1b41b34b3 <= 0
y41y51y3 - 1b41b51b3 <= 0
y98y51y2 - 1b98b51b2 <= 0
y98y91y2 - 2b98b91b2 <= 0
y8y51y2 - 1b8b51b2 <= 0
y8y91y2 - 2b8b91b2 <= 0
y34y51y3 - 1b34b51b3 <= 0
y38y20y1 - 2b38b20b1 <= 0
y38y34y1 - 1b38b34b1 <= 0
y91y51y2 - 1b91b51b2 <= 0
y137y34y3 - 1b137b34b3 <= 0
y137y51y3 - 1b137b51b3 <= 0
y142y51y2 - 1b142b51b2 <= 0
y142y91y2 - 2b142b91b2 <= 0
y162y20y1 - 2b162b20b1 <= 0
y162y34y1 - 1b162b34b1 <= 0
y162y34y3 - 1b162b34b3 <= 0
y162y51y3 - 1b162b51b3 <= 0
z68z91z2 - 2c68c91c2 <= 0
z73z20z1 - 2c73c20c1 <= 0
z175z91z2 - 2c175c91c2 <= 0
z189z20z1 - 2c189c20c1 <= 0
z158z91z2 - 2c158c91c2 <= 0
z167z20z1 - 2c167c20c1 <= 0
z87z20z1 - 2c87c20c1 <= 0
z98z91z2 - 2c98c91c2 <= 0
z8z91z2 - 2c8c91c2 <= 0
z34z20z1 - 2c34c20c1 <= 0
z38z20z1 - 2c38c20c1 <= 0
z51z91z2 - 2c51c91c2 <= 0
z142z91z2 - 2c142c91c2 <= 0
z162z20z1 - 2c162c20c1 <= 0
v68v8v2 - 2d68d8d2 <= 0
v68v91v2 - 2d68d91d2 <= 0
v68v142v2 - 2d68d142d2 <= 0
v73v38v1 - 2d73d38d1 <= 0
v73v162v1 - 1d73d162d1 <= 0
v175v8v2 - 2d175d8d2 <= 0
v175v91v2 - 2d175d91d2 <= 0
v175v137v3 - 2d175d137d3 <= 0
v175v142v2 - 2d175d142d2 <= 0
v175v162v3 - 1d175d162d3 <= 0
v189v38v1 - 2d189d38d1 <= 0
v189v162v1 - 1d189d162d1 <= 0
v158v8v2 - 2d158d8d2 <= 0
v158v91v2 - 2d158d91d2 <= 0
v158v142v2 - 2d158d142d2 <= 0
v167v38v1 - 2d167d38d1 <= 0
v167v162v1 - 1d167d162d1 <= 0
v85v137v3 - 2d85d137d3 <= 0
v85v162v3 - 1d85d162d3 <= 0
v87v38v1 - 2d87d38d1 <= 0
v87v137v3 - 2d87d137d3 <= 0
v87v162v1 - 1d87d162d1 <= 0
v87v162v3 - 1d87d162d3 <= 0
v41v137v3 - 2d41d137d3 <= 0
v41v162v3 - 1d41d162d3 <= 0
v98v8v2 - 2d98d8d2 <= 0
v98v91v2 - 2d98d91d2 <= 0
v98v142v2 - 2d98d142d2 <= 0
v8v91v2 - 2d8d91d2 <= 0
v8v142v2 - 2d8d142d2 <= 0
v20v38v1 - 2d20d38d1 <= 0
v20v162v1 - 1d20d162d1 <= 0
v34v38v1 - 2d34d38d1 <= 0
v34v137v3 - 2d34d137d3 <= 0
v34v162v1 - 1d34d162d1 <= 0
v34v162v3 - 1d34d162d3 <= 0
v38v162v1 - 1d38d162d1 <= 0
v51v8v2 - 2d51d8d2 <= 0
v51v91v2 - 2d51d91d2 <= 0
v51v137v3 - 2d51d137d3 <= 0
v51v142v2 - 2d51d142d2 <= 0
v51v162v3 - 1d51d162d3 <= 0
v137v162v3 - 1d137d162d3 <= 0
v142v91v2 - 2d142d91d2 <= 0

Bounds
s68 = 4.169858
t68 = 4.169858
u68 = 4.169858
r68 = 4.169858
s73 = 4.581770
t73 = 4.581770
u73 = 4.581770
r73 = 4.581770
s175 = 4.688710
t175 = 4.688710
u175 = 4.688710
r175 = 4.688710
s189 = 4.743522
t189 = 4.743522
u189 = 4.743522
r189 = 4.743522
s158 = 5.191893
t158 = 5.191893
u158 = 5.191893
r158 = 5.191893
s167 = 5.243392
t167 = 5.243392
u167 = 5.243392
r167 = 5.243392
s85 = 5.243829
t85 = 5.243829
u85 = 5.243829
r85 = 5.243829
s87 = 5.208832
t87 = 5.208832
u87 = 5.208832
r87 = 5.208832
s41 = 5.876087
t41 = 5.876087
u41 = 5.876087
r41 = 5.876087
s98 = 5.616952
t98 = 5.616952
u98 = 5.616952
r98 = 5.616952
5.00 <= s8 <= 6.00
5.13 <= s20 <= 6.01
5.13 <= s34 <= 6.13
5.00 <= s38 <= 6.00
5.66 <= s51 <= 6.66
5.85 <= s91 <= 6.14
5.02 <= s137 <= 6.02
5.12 <= s142 <= 6.12
5.11 <= s162 <= 6.11

0.00 <= t8 <= 20.00
5.01 <= t20 <= 6.01
5.13 <= t34 <= 6.13
0.00 <= t38 <= 20.00
5.66 <= t51 <= 6.66
5.14 <= t91 <= 6.14
0.00 <= t137 <= 20.00
0.00 <= t142 <= 20.00
0.00 <= t162 <= 20.00

0.00 <= u8 <= 20.00
5.13 <= u20 <= 6.13
0.00 <= u34 <= 20.00
0.00 <= u38 <= 20.00
0.00 <= u51 <= 20.00
5.16 <= u91 <= 6.16
0.00 <= u137 <= 20.00
0.00 <= u142 <= 20.00
0.00 <= u162 <= 20.00

5.00 <= r8 <= 6.00
0.00 <= r20 <= 20.00
0.00 <= r34 <= 20.00
5.00 <= r38 <= 6.00
0.00 <= r51 <= 20.00
5.85 <= r91 <= 6.85
5.02 <= r137 <= 6.02
5.12 <= r142 <= 6.12
5.11 <= r162 <= 6.11

General
x68x8x2 x68x51x2 x68x91x2 x68x142x2 
x73x20x1 x73x34x1 x73x38x1 x73x162x1 
x175x8x2 x175x34x3 x175x51x2 x175x51x3 x175x91x2 x175x137x3 x175x142x2 x175x162x3 
x189x20x1 x189x34x1 x189x38x1 x189x162x1 
x158x8x2 x158x51x2 x158x91x2 x158x142x2 
x167x20x1 x167x34x1 x167x38x1 x167x162x1 
x85x34x3 x85x51x3 x85x137x3 x85x162x3 
x87x20x1 x87x34x1 x87x34x3 x87x38x1 x87x51x3 x87x137x3 x87x162x1 x87x162x3 
x41x34x3 x41x51x3 x41x137x3 x41x162x3 
x98x8x2 x98x51x2 x98x91x2 x98x142x2 
x8x51x2 x8x142x2 
x34x51x3 
x38x162x1 
x137x51x3 x137x162x3 
x142x51x2 
x162x51x3 

y68y51y2 y68y91y2 
y73y20y1 y73y34y1 
y175y34y3 y175y51y2 y175y51y3 y175y91y2 
y189y20y1 y189y34y1 
y158y51y2 y158y91y2 
y167y20y1 y167y34y1 
y85y34y3 y85y51y3 
y87y20y1 y87y34y1 y87y34y3 y87y51y3 
y41y34y3 y41y51y3 
y98y51y2 y98y91y2 
y8y51y2 y8y91y2 
y34y51y3 
y38y20y1 y38y34y1 
y91y51y2 
y137y34y3 y137y51y3 
y142y51y2 y142y91y2 
y162y20y1 y162y34y1 y162y34y3 y162y51y3 

z68z91z2 
z73z20z1 
z175z91z2 
z189z20z1 
z158z91z2 
z167z20z1 
z87z20z1 
z98z91z2 
z8z91z2 
z34z20z1 
z38z20z1 
z51z91z2 
z142z91z2 
z162z20z1 

v68v8v2 v68v91v2 v68v142v2 
v73v38v1 v73v162v1 
v175v8v2 v175v91v2 v175v137v3 v175v142v2 v175v162v3 
v189v38v1 v189v162v1 
v158v8v2 v158v91v2 v158v142v2 
v167v38v1 v167v162v1 
v85v137v3 v85v162v3 
v87v38v1 v87v137v3 v87v162v1 v87v162v3 
v41v137v3 v41v162v3 
v98v8v2 v98v91v2 v98v142v2 
v8v91v2 v8v142v2 
v20v38v1 v20v162v1 
v34v38v1 v34v137v3 v34v162v1 v34v162v3 
v38v162v1 
v51v8v2 v51v91v2 v51v137v3 v51v142v2 v51v162v3 
v137v162v3 
v142v91v2 

Binaries
X8 X20 X34 X38 X51 X91 X137 X142 X162 
Y20 Y34 Y51 Y91 
Z20 Z91 
V8 V38 V91 V137 V142 V162 

w8 w20 w34 w38 w51 w91 w137 w142 w162 

a68a8a2 a68a51a2 a68a91a2 a68a142a2 
a73a20a1 a73a34a1 a73a38a1 a73a162a1 
a175a8a2 a175a34a3 a175a51a2 a175a51a3 a175a91a2 a175a137a3 a175a142a2 a175a162a3 
a189a20a1 a189a34a1 a189a38a1 a189a162a1 
a158a8a2 a158a51a2 a158a91a2 a158a142a2 
a167a20a1 a167a34a1 a167a38a1 a167a162a1 
a85a34a3 a85a51a3 a85a137a3 a85a162a3 
a87a20a1 a87a34a1 a87a34a3 a87a38a1 a87a51a3 a87a137a3 a87a162a1 a87a162a3 
a41a34a3 a41a51a3 a41a137a3 a41a162a3 
a98a8a2 a98a51a2 a98a91a2 a98a142a2 
a8a51a2 a8a142a2 
a34a51a3 
a38a162a1 
a137a51a3 a137a162a3 
a142a51a2 
a162a51a3 

b68b51b2 b68b91b2 
b73b20b1 b73b34b1 
b175b34b3 b175b51b2 b175b51b3 b175b91b2 
b189b20b1 b189b34b1 
b158b51b2 b158b91b2 
b167b20b1 b167b34b1 
b85b34b3 b85b51b3 
b87b20b1 b87b34b1 b87b34b3 b87b51b3 
b41b34b3 b41b51b3 
b98b51b2 b98b91b2 
b8b51b2 b8b91b2 
b34b51b3 
b38b20b1 b38b34b1 
b91b51b2 
b137b34b3 b137b51b3 
b142b51b2 b142b91b2 
b162b20b1 b162b34b1 b162b34b3 b162b51b3 

c68c91c2 
c73c20c1 
c175c91c2 
c189c20c1 
c158c91c2 
c167c20c1 
c87c20c1 
c98c91c2 
c8c91c2 
c34c20c1 
c38c20c1 
c51c91c2 
c142c91c2 
c162c20c1 

d68d8d2 d68d91d2 d68d142d2 
d73d38d1 d73d162d1 
d175d8d2 d175d91d2 d175d137d3 d175d142d2 d175d162d3 
d189d38d1 d189d162d1 
d158d8d2 d158d91d2 d158d142d2 
d167d38d1 d167d162d1 
d85d137d3 d85d162d3 
d87d38d1 d87d137d3 d87d162d1 d87d162d3 
d41d137d3 d41d162d3 
d98d8d2 d98d91d2 d98d142d2 
d8d91d2 d8d142d2 
d20d38d1 d20d162d1 
d34d38d1 d34d137d3 d34d162d1 d34d162d3 
d38d162d1 
d51d8d2 d51d91d2 d51d137d3 d51d142d2 d51d162d3 
d137d162d3 
d142d91d2 

End